(set-logic QF_UF)
(declare-fun car () Bool)
(declare-fun circuit () Bool)
(declare-fun clk () Bool)
(declare-fun prt () Bool)
(assert (not (= (= car (not (not car))) true)))
(assert (= (= car (not (not car))) (= car car)))
(assert (= (= car car) true))
(check-sat)
(exit)
